(set-info :source |printed by MathSAT|)
(declare-fun |!{a1.1}| () (Array Int Int))
(declare-fun |!{a1.1}.next| () (Array Int Int))
(declare-fun |!{a2.2}| () (Array Int Int))
(declare-fun |!{a2.2}.next| () (Array Int Int))
(declare-fun |!{a3.3}| () (Array Int Int))
(declare-fun |!{a3.3}.next| () (Array Int Int))
(declare-fun |!{a4.4}| () (Array Int Int))
(declare-fun |!{a4.4}.next| () (Array Int Int))
(declare-fun |!{a5.5}| () (Array Int Int))
(declare-fun |!{a5.5}.next| () (Array Int Int))
(declare-fun |!{a6.6}| () (Array Int Int))
(declare-fun |!{a6.6}.next| () (Array Int Int))
(declare-fun |!{a7.7}| () (Array Int Int))
(declare-fun |!{a7.7}.next| () (Array Int Int))
(declare-fun |!{N}| () Int)
(declare-fun |!{N}.next| () Int)
(declare-fun |!{i}| () Int)
(declare-fun |!{i}.next| () Int)
(declare-fun |!{a8.8}| () (Array Int Int))
(declare-fun |!{a8.8}.next| () (Array Int Int))
(declare-fun |!{x}| () Int)
(declare-fun |!{x}.next| () Int)
(declare-fun |!{a9.9}| () (Array Int Int))
(declare-fun |!{a9.9}.next| () (Array Int Int))
(declare-fun |!pc[0]| () Bool)
(declare-fun |!pc[0].next| () Bool)
(declare-fun |!pc[1]| () Bool)
(declare-fun |!pc[1].next| () Bool)
(declare-fun |!pc[2]| () Bool)
(declare-fun |!pc[2].next| () Bool)
(declare-fun |!pc[3]| () Bool)
(declare-fun |!pc[3].next| () Bool)
(declare-fun |%{x}#1| () Int)
(declare-fun |%{a1.1}#1| () (Array Int Int))
(declare-fun |%{a2.2}#1| () (Array Int Int))
(declare-fun |%{a3.3}#1| () (Array Int Int))
(declare-fun |%{a4.4}#1| () (Array Int Int))
(declare-fun |%{a5.5}#1| () (Array Int Int))
(declare-fun |%{a6.6}#1| () (Array Int Int))
(declare-fun |%{a7.7}#1| () (Array Int Int))
(declare-fun |%{a8.8}#1| () (Array Int Int))
(declare-fun |%{a9.9}#1| () (Array Int Int))
(declare-fun nd<0> () Int)
(declare-fun nd_char<0> () Int)
(define-fun .def_64 () Bool (! |!pc[3]| :next |!pc[3].next|))
(define-fun .def_71 () Bool (not .def_64))
(define-fun .def_62 () Bool (! |!pc[2]| :next |!pc[2].next|))
(define-fun .def_69 () Bool (not .def_62))
(define-fun .def_60 () Bool (! |!pc[1]| :next |!pc[1].next|))
(define-fun .def_67 () Bool (not .def_60))
(define-fun .def_58 () Bool (! |!pc[0]| :next |!pc[0].next|))
(define-fun .def_66 () Bool (not .def_58))
(define-fun .def_68 () Bool (and .def_66 .def_67))
(define-fun .def_70 () Bool (and .def_68 .def_69))
(define-fun .def_72 () Bool (! (and .def_70 .def_71) :init true))
(define-fun .def_231 () Bool (and .def_58 .def_67))
(define-fun .def_315 () Bool (and .def_69 .def_231))
(define-fun .def_400 () Bool (and .def_71 .def_315))
(define-fun .def_189 () Bool (and |!pc[0].next| |!pc[1].next|))
(define-fun .def_116 () Bool (not |!pc[2].next|))
(define-fun .def_190 () Bool (and .def_116 .def_189))
(define-fun .def_360 () Bool (and |!pc[3].next| .def_190))
(define-fun .def_403 () Bool (and .def_360 .def_400))
(define-fun .def_10 () (Array Int Int) (! |!{a2.2}| :next |!{a2.2}.next|))
(define-fun .def_134 () Bool (= .def_10 |!{a2.2}.next|))
(define-fun .def_8 () (Array Int Int) (! |!{a1.1}| :next |!{a1.1}.next|))
(define-fun .def_132 () Bool (= .def_8 |!{a1.1}.next|))
(define-fun .def_157 () Bool (and .def_132 .def_134))
(define-fun .def_12 () (Array Int Int) (! |!{a3.3}| :next |!{a3.3}.next|))
(define-fun .def_136 () Bool (= .def_12 |!{a3.3}.next|))
(define-fun .def_158 () Bool (and .def_136 .def_157))
(define-fun .def_14 () (Array Int Int) (! |!{a4.4}| :next |!{a4.4}.next|))
(define-fun .def_138 () Bool (= .def_14 |!{a4.4}.next|))
(define-fun .def_159 () Bool (and .def_138 .def_158))
(define-fun .def_16 () (Array Int Int) (! |!{a5.5}| :next |!{a5.5}.next|))
(define-fun .def_140 () Bool (= .def_16 |!{a5.5}.next|))
(define-fun .def_160 () Bool (and .def_140 .def_159))
(define-fun .def_18 () (Array Int Int) (! |!{a6.6}| :next |!{a6.6}.next|))
(define-fun .def_142 () Bool (= .def_18 |!{a6.6}.next|))
(define-fun .def_161 () Bool (and .def_142 .def_160))
(define-fun .def_22 () Int (! |!{N}| :next |!{N}.next|))
(define-fun .def_144 () Bool (= .def_22 |!{N}.next|))
(define-fun .def_162 () Bool (and .def_144 .def_161))
(define-fun .def_20 () (Array Int Int) (! |!{a7.7}| :next |!{a7.7}.next|))
(define-fun .def_146 () Bool (= .def_20 |!{a7.7}.next|))
(define-fun .def_163 () Bool (and .def_146 .def_162))
(define-fun .def_26 () (Array Int Int) (! |!{a8.8}| :next |!{a8.8}.next|))
(define-fun .def_148 () Bool (= .def_26 |!{a8.8}.next|))
(define-fun .def_164 () Bool (and .def_148 .def_163))
(define-fun .def_107 () Bool (= |!{i}.next| 0))
(define-fun .def_250 () Bool (and .def_107 .def_164))
(define-fun .def_30 () (Array Int Int) (! |!{a9.9}| :next |!{a9.9}.next|))
(define-fun .def_152 () Bool (= .def_30 |!{a9.9}.next|))
(define-fun .def_251 () Bool (and .def_152 .def_250))
(define-fun .def_28 () Int (! |!{x}| :next |!{x}.next|))
(define-fun .def_154 () Bool (= .def_28 |!{x}.next|))
(define-fun .def_252 () Bool (and .def_154 .def_251))
(define-fun .def_24 () Int (! |!{i}| :next |!{i}.next|))
(define-fun .def_214 () Bool (<= .def_22 .def_24))
(define-fun .def_253 () Bool (and .def_214 .def_252))
(define-fun .def_404 () Bool (and .def_253 .def_403))
(define-fun .def_118 () Bool (not |!pc[3].next|))
(define-fun .def_114 () Bool (not |!pc[1].next|))
(define-fun .def_115 () Bool (and |!pc[0].next| .def_114))
(define-fun .def_117 () Bool (and .def_115 .def_116))
(define-fun .def_119 () Bool (and .def_117 .def_118))
(define-fun .def_401 () Bool (and .def_119 .def_400))
(define-fun .def_386 () (Array Int Int) (store .def_10 .def_24 nd_char<0>))
(define-fun .def_387 () Bool (= |!{a2.2}.next| .def_386))
(define-fun .def_369 () (Array Int Int) (store .def_8 .def_24 nd_char<0>))
(define-fun .def_372 () Bool (= |!{a1.1}.next| .def_369))
(define-fun .def_388 () Bool (and .def_372 .def_387))
(define-fun .def_389 () Bool (and .def_136 .def_388))
(define-fun .def_390 () Bool (and .def_138 .def_389))
(define-fun .def_391 () Bool (and .def_140 .def_390))
(define-fun .def_392 () Bool (and .def_142 .def_391))
(define-fun .def_393 () Bool (and .def_144 .def_392))
(define-fun .def_394 () Bool (and .def_146 .def_393))
(define-fun .def_395 () Bool (and .def_148 .def_394))
(define-fun .def_220 () Int (* (- 1) |!{i}.next|))
(define-fun .def_221 () Int (+ .def_24 .def_220))
(define-fun .def_222 () Bool (= .def_221 (- 1)))
(define-fun .def_396 () Bool (and .def_222 .def_395))
(define-fun .def_397 () Bool (and .def_152 .def_396))
(define-fun .def_398 () Bool (and .def_154 .def_397))
(define-fun .def_215 () Bool (not .def_214))
(define-fun .def_399 () Bool (and .def_215 .def_398))
(define-fun .def_402 () Bool (and .def_399 .def_401))
(define-fun .def_405 () Bool (or .def_402 .def_404))
(define-fun .def_208 () Bool (and .def_58 .def_60))
(define-fun .def_209 () Bool (and .def_69 .def_208))
(define-fun .def_359 () Bool (and .def_64 .def_209))
(define-fun .def_194 () Bool (not |!pc[0].next|))
(define-fun .def_195 () Bool (and |!pc[1].next| .def_194))
(define-fun .def_196 () Bool (and .def_116 .def_195))
(define-fun .def_338 () Bool (and |!pc[3].next| .def_196))
(define-fun .def_363 () Bool (and .def_338 .def_359))
(define-fun .def_364 () Bool (and .def_253 .def_363))
(define-fun .def_361 () Bool (and .def_359 .def_360))
(define-fun .def_345 () Int (select .def_10 .def_24))
(define-fun .def_346 () (Array Int Int) (store .def_12 .def_24 .def_345))
(define-fun .def_347 () Bool (= |!{a3.3}.next| .def_346))
(define-fun .def_348 () Bool (and .def_157 .def_347))
(define-fun .def_349 () Bool (and .def_138 .def_348))
(define-fun .def_350 () Bool (and .def_140 .def_349))
(define-fun .def_351 () Bool (and .def_142 .def_350))
(define-fun .def_352 () Bool (and .def_144 .def_351))
(define-fun .def_353 () Bool (and .def_146 .def_352))
(define-fun .def_354 () Bool (and .def_148 .def_353))
(define-fun .def_355 () Bool (and .def_222 .def_354))
(define-fun .def_356 () Bool (and .def_152 .def_355))
(define-fun .def_357 () Bool (and .def_154 .def_356))
(define-fun .def_358 () Bool (and .def_215 .def_357))
(define-fun .def_362 () Bool (and .def_358 .def_361))
(define-fun .def_365 () Bool (or .def_362 .def_364))
(define-fun .def_186 () Bool (and .def_60 .def_66))
(define-fun .def_187 () Bool (and .def_69 .def_186))
(define-fun .def_337 () Bool (and .def_64 .def_187))
(define-fun .def_317 () Bool (and |!pc[3].next| .def_117))
(define-fun .def_341 () Bool (and .def_317 .def_337))
(define-fun .def_342 () Bool (and .def_253 .def_341))
(define-fun .def_339 () Bool (and .def_337 .def_338))
(define-fun .def_324 () Int (select .def_12 .def_24))
(define-fun .def_325 () (Array Int Int) (store .def_14 .def_24 .def_324))
(define-fun .def_326 () Bool (= |!{a4.4}.next| .def_325))
(define-fun .def_327 () Bool (and .def_158 .def_326))
(define-fun .def_328 () Bool (and .def_140 .def_327))
(define-fun .def_329 () Bool (and .def_142 .def_328))
(define-fun .def_330 () Bool (and .def_144 .def_329))
(define-fun .def_331 () Bool (and .def_146 .def_330))
(define-fun .def_332 () Bool (and .def_148 .def_331))
(define-fun .def_333 () Bool (and .def_222 .def_332))
(define-fun .def_334 () Bool (and .def_152 .def_333))
(define-fun .def_335 () Bool (and .def_154 .def_334))
(define-fun .def_336 () Bool (and .def_215 .def_335))
(define-fun .def_340 () Bool (and .def_336 .def_339))
(define-fun .def_343 () Bool (or .def_340 .def_342))
(define-fun .def_316 () Bool (and .def_64 .def_315))
(define-fun .def_201 () Bool (and .def_114 .def_194))
(define-fun .def_295 () Bool (and .def_116 .def_201))
(define-fun .def_296 () Bool (and |!pc[3].next| .def_295))
(define-fun .def_320 () Bool (and .def_296 .def_316))
(define-fun .def_321 () Bool (and .def_253 .def_320))
(define-fun .def_318 () Bool (and .def_316 .def_317))
(define-fun .def_303 () Int (select .def_14 .def_24))
(define-fun .def_304 () (Array Int Int) (store .def_16 .def_24 .def_303))
(define-fun .def_305 () Bool (= |!{a5.5}.next| .def_304))
(define-fun .def_306 () Bool (and .def_159 .def_305))
(define-fun .def_307 () Bool (and .def_142 .def_306))
(define-fun .def_308 () Bool (and .def_144 .def_307))
(define-fun .def_309 () Bool (and .def_146 .def_308))
(define-fun .def_310 () Bool (and .def_148 .def_309))
(define-fun .def_311 () Bool (and .def_222 .def_310))
(define-fun .def_312 () Bool (and .def_152 .def_311))
(define-fun .def_313 () Bool (and .def_154 .def_312))
(define-fun .def_314 () Bool (and .def_215 .def_313))
(define-fun .def_319 () Bool (and .def_314 .def_318))
(define-fun .def_322 () Bool (or .def_319 .def_321))
(define-fun .def_294 () Bool (and .def_64 .def_70))
(define-fun .def_275 () Bool (and |!pc[2].next| .def_189))
(define-fun .def_276 () Bool (and .def_118 .def_275))
(define-fun .def_299 () Bool (and .def_276 .def_294))
(define-fun .def_300 () Bool (and .def_253 .def_299))
(define-fun .def_297 () Bool (and .def_294 .def_296))
(define-fun .def_283 () Int (select .def_16 .def_24))
(define-fun .def_284 () (Array Int Int) (store .def_18 .def_24 .def_283))
(define-fun .def_285 () Bool (= |!{a6.6}.next| .def_284))
(define-fun .def_286 () Bool (and .def_160 .def_285))
(define-fun .def_287 () Bool (and .def_144 .def_286))
(define-fun .def_288 () Bool (and .def_146 .def_287))
(define-fun .def_289 () Bool (and .def_148 .def_288))
(define-fun .def_290 () Bool (and .def_222 .def_289))
(define-fun .def_291 () Bool (and .def_152 .def_290))
(define-fun .def_292 () Bool (and .def_154 .def_291))
(define-fun .def_293 () Bool (and .def_215 .def_292))
(define-fun .def_298 () Bool (and .def_293 .def_297))
(define-fun .def_301 () Bool (or .def_298 .def_300))
(define-fun .def_273 () Bool (and .def_62 .def_208))
(define-fun .def_274 () Bool (and .def_71 .def_273))
(define-fun .def_256 () Bool (and |!pc[2].next| .def_195))
(define-fun .def_257 () Bool (and .def_118 .def_256))
(define-fun .def_279 () Bool (and .def_257 .def_274))
(define-fun .def_280 () Bool (and .def_253 .def_279))
(define-fun .def_277 () Bool (and .def_274 .def_276))
(define-fun .def_264 () Int (select .def_18 .def_24))
(define-fun .def_265 () (Array Int Int) (store .def_20 .def_24 .def_264))
(define-fun .def_266 () Bool (= |!{a7.7}.next| .def_265))
(define-fun .def_267 () Bool (and .def_162 .def_266))
(define-fun .def_268 () Bool (and .def_148 .def_267))
(define-fun .def_269 () Bool (and .def_222 .def_268))
(define-fun .def_270 () Bool (and .def_152 .def_269))
(define-fun .def_271 () Bool (and .def_154 .def_270))
(define-fun .def_272 () Bool (and .def_215 .def_271))
(define-fun .def_278 () Bool (and .def_272 .def_277))
(define-fun .def_281 () Bool (or .def_278 .def_280))
(define-fun .def_254 () Bool (and .def_62 .def_186))
(define-fun .def_255 () Bool (and .def_71 .def_254))
(define-fun .def_234 () Bool (and |!pc[2].next| .def_115))
(define-fun .def_235 () Bool (and .def_118 .def_234))
(define-fun .def_260 () Bool (and .def_235 .def_255))
(define-fun .def_261 () Bool (and .def_253 .def_260))
(define-fun .def_258 () Bool (and .def_255 .def_257))
(define-fun .def_242 () Int (select .def_20 .def_24))
(define-fun .def_243 () (Array Int Int) (store .def_26 .def_24 .def_242))
(define-fun .def_244 () Bool (= |!{a8.8}.next| .def_243))
(define-fun .def_245 () Bool (and .def_163 .def_244))
(define-fun .def_246 () Bool (and .def_222 .def_245))
(define-fun .def_247 () Bool (and .def_152 .def_246))
(define-fun .def_248 () Bool (and .def_154 .def_247))
(define-fun .def_249 () Bool (and .def_215 .def_248))
(define-fun .def_259 () Bool (and .def_249 .def_258))
(define-fun .def_262 () Bool (or .def_259 .def_261))
(define-fun .def_232 () Bool (and .def_62 .def_231))
(define-fun .def_233 () Bool (and .def_71 .def_232))
(define-fun .def_197 () Bool (and .def_118 .def_196))
(define-fun .def_238 () Bool (and .def_197 .def_233))
(define-fun .def_228 () Bool (= |!{x}.next| 0))
(define-fun .def_150 () Bool (= .def_24 |!{i}.next|))
(define-fun .def_165 () Bool (and .def_150 .def_164))
(define-fun .def_166 () Bool (and .def_152 .def_165))
(define-fun .def_229 () Bool (and .def_166 .def_228))
(define-fun .def_230 () Bool (and .def_214 .def_229))
(define-fun .def_239 () Bool (and .def_230 .def_238))
(define-fun .def_236 () Bool (and .def_233 .def_235))
(define-fun .def_217 () Int (select .def_26 .def_24))
(define-fun .def_218 () (Array Int Int) (store .def_30 .def_24 .def_217))
(define-fun .def_224 () Bool (= |!{a9.9}.next| .def_218))
(define-fun .def_223 () Bool (and .def_164 .def_222))
(define-fun .def_225 () Bool (and .def_223 .def_224))
(define-fun .def_226 () Bool (and .def_154 .def_225))
(define-fun .def_227 () Bool (and .def_215 .def_226))
(define-fun .def_237 () Bool (and .def_227 .def_236))
(define-fun .def_240 () Bool (or .def_237 .def_239))
(define-fun .def_210 () Bool (and .def_71 .def_209))
(define-fun .def_211 () Bool (and .def_197 .def_210))
(define-fun .def_168 () Int (* (- 1) |!{x}.next|))
(define-fun .def_169 () Int (+ .def_28 .def_168))
(define-fun .def_170 () Bool (= .def_169 (- 1)))
(define-fun .def_171 () Bool (and .def_166 .def_170))
(define-fun .def_212 () Bool (and .def_171 .def_211))
(define-fun .def_202 () Bool (and |!pc[2].next| .def_201))
(define-fun .def_203 () Bool (and .def_118 .def_202))
(define-fun .def_188 () Bool (and .def_71 .def_187))
(define-fun .def_204 () Bool (and .def_188 .def_203))
(define-fun .def_122 () Bool (<= .def_22 .def_28))
(define-fun .def_174 () Bool (and .def_122 .def_132))
(define-fun .def_175 () Bool (and .def_134 .def_174))
(define-fun .def_176 () Bool (and .def_136 .def_175))
(define-fun .def_177 () Bool (and .def_138 .def_176))
(define-fun .def_178 () Bool (and .def_140 .def_177))
(define-fun .def_179 () Bool (and .def_142 .def_178))
(define-fun .def_180 () Bool (and .def_144 .def_179))
(define-fun .def_181 () Bool (and .def_146 .def_180))
(define-fun .def_182 () Bool (and .def_148 .def_181))
(define-fun .def_183 () Bool (and .def_150 .def_182))
(define-fun .def_184 () Bool (and .def_152 .def_183))
(define-fun .def_185 () Bool (and .def_154 .def_184))
(define-fun .def_205 () Bool (and .def_185 .def_204))
(define-fun .def_198 () Bool (and .def_188 .def_197))
(define-fun .def_125 () Int (select .def_30 .def_28))
(define-fun .def_124 () Int (select .def_8 .def_28))
(define-fun .def_126 () Bool (= .def_124 .def_125))
(define-fun .def_172 () Bool (and .def_126 .def_171))
(define-fun .def_123 () Bool (not .def_122))
(define-fun .def_173 () Bool (and .def_123 .def_172))
(define-fun .def_199 () Bool (and .def_173 .def_198))
(define-fun .def_191 () Bool (and .def_118 .def_190))
(define-fun .def_192 () Bool (and .def_188 .def_191))
(define-fun .def_127 () Bool (not .def_126))
(define-fun .def_133 () Bool (and .def_127 .def_132))
(define-fun .def_135 () Bool (and .def_133 .def_134))
(define-fun .def_137 () Bool (and .def_135 .def_136))
(define-fun .def_139 () Bool (and .def_137 .def_138))
(define-fun .def_141 () Bool (and .def_139 .def_140))
(define-fun .def_143 () Bool (and .def_141 .def_142))
(define-fun .def_145 () Bool (and .def_143 .def_144))
(define-fun .def_147 () Bool (and .def_145 .def_146))
(define-fun .def_149 () Bool (and .def_147 .def_148))
(define-fun .def_151 () Bool (and .def_149 .def_150))
(define-fun .def_153 () Bool (and .def_151 .def_152))
(define-fun .def_155 () Bool (and .def_153 .def_154))
(define-fun .def_156 () Bool (and .def_123 .def_155))
(define-fun .def_193 () Bool (and .def_156 .def_192))
(define-fun .def_200 () Bool (or .def_193 .def_199))
(define-fun .def_206 () Bool (or .def_200 .def_205))
(define-fun .def_120 () Bool (and .def_72 .def_119))
(define-fun .def_111 () Bool (= |!{x}.next| |%{x}#1|))
(define-fun .def_109 () Bool (= |!{a9.9}.next| |%{a9.9}#1|))
(define-fun .def_105 () Bool (= |!{a8.8}.next| |%{a8.8}#1|))
(define-fun .def_103 () Bool (= |!{a7.7}.next| |%{a7.7}#1|))
(define-fun .def_101 () Bool (= |!{N}.next| nd<0>))
(define-fun .def_99 () Bool (= |!{a6.6}.next| |%{a6.6}#1|))
(define-fun .def_97 () Bool (= |!{a5.5}.next| |%{a5.5}#1|))
(define-fun .def_95 () Bool (= |!{a4.4}.next| |%{a4.4}#1|))
(define-fun .def_93 () Bool (= |!{a3.3}.next| |%{a3.3}#1|))
(define-fun .def_91 () Bool (= |!{a2.2}.next| |%{a2.2}#1|))
(define-fun .def_90 () Bool (= |!{a1.1}.next| |%{a1.1}#1|))
(define-fun .def_92 () Bool (and .def_90 .def_91))
(define-fun .def_94 () Bool (and .def_92 .def_93))
(define-fun .def_96 () Bool (and .def_94 .def_95))
(define-fun .def_98 () Bool (and .def_96 .def_97))
(define-fun .def_100 () Bool (and .def_98 .def_99))
(define-fun .def_102 () Bool (and .def_100 .def_101))
(define-fun .def_104 () Bool (and .def_102 .def_103))
(define-fun .def_106 () Bool (and .def_104 .def_105))
(define-fun .def_108 () Bool (and .def_106 .def_107))
(define-fun .def_110 () Bool (and .def_108 .def_109))
(define-fun .def_112 () Bool (and .def_110 .def_111))
(define-fun .def_88 () Bool (<= nd<0> 0))
(define-fun .def_89 () Bool (not .def_88))
(define-fun .def_113 () Bool (and .def_89 .def_112))
(define-fun .def_121 () Bool (and .def_113 .def_120))
(define-fun .def_207 () Bool (or .def_121 .def_206))
(define-fun .def_213 () Bool (or .def_207 .def_212))
(define-fun .def_241 () Bool (or .def_213 .def_240))
(define-fun .def_263 () Bool (or .def_241 .def_262))
(define-fun .def_282 () Bool (or .def_263 .def_281))
(define-fun .def_302 () Bool (or .def_282 .def_301))
(define-fun .def_323 () Bool (or .def_302 .def_322))
(define-fun .def_344 () Bool (or .def_323 .def_343))
(define-fun .def_366 () Bool (or .def_344 .def_365))
(define-fun .def_406 () Bool (! (or .def_366 .def_405) :trans true))
(define-fun .def_407 () Bool (! (not .def_210) :invar-property 0))
(assert true)
